
Log started (V22.2.0.0) Tue Jun  9 09:14:33 2026

New value for time limit in seconds: 60
New value for default parallel thread count: 4
New value for mixed integer optimality gap tolerance: 0.001
New value for level of mixed integer node display: 2

Problem 'results/InstanceA1_ti_finsteps123_i30_m600.lp' read.
Read time = 0.06 sec. (8.03 ticks)
Version identifier: 22.2.0.0 | 2026-05-04 | 5dff98e58
CPXPARAM_Threads                                 4
CPXPARAM_TimeLimit                               60
CPXPARAM_MIP_Tolerances_MIPGap                   0.001
Tried aggregator 1 time.
MIP Presolve eliminated 30033 rows and 4984 columns.
MIP Presolve modified 69311 coefficients.
Reduced MIP has 22947 rows, 20889 columns, and 392199 nonzeros.
Reduced MIP has 20889 binaries, 0 generals, 0 SOSs, and 0 indicators.
Presolve time = 0.32 sec. (785.25 ticks)
Found incumbent of value 38.000000 after 0.68 sec. (1813.04 ticks)
Probing fixed 125 vars, tightened 0 bounds.
Probing changed sense of 154 constraints.
Probing time = 0.03 sec. (53.08 ticks)
Tried aggregator 1 time.
Detecting symmetries...
MIP Presolve eliminated 1718 rows and 1385 columns.
MIP Presolve modified 3956 coefficients.
Reduced MIP has 21229 rows, 19504 columns, and 356576 nonzeros.
Reduced MIP has 19504 binaries, 0 generals, 0 SOSs, and 0 indicators.
Presolve time = 0.18 sec. (510.22 ticks)
Probing time = 0.01 sec. (7.21 ticks)
Clique table members: 41002.
MIP emphasis: balance optimality and feasibility.
MIP search method: dynamic search.
Parallel mode: deterministic, using up to 4 threads.
Root relaxation solution time = 0.12 sec. (213.56 ticks)

        Nodes                                         Cuts/
   Node  Left     Objective  IInf  Best Integer    Best Bound    ItCnt     Gap

*     0+    0                           38.0000        3.0000            92.11%
*     0     0      integral     0       17.0000       17.0000     2314    0.00%
Elapsed time = 1.06 sec. (2684.29 ticks, tree = 0.00 MB, solutions = 2)

Root node processing (before b&c):
  Real time             =    1.06 sec. (2685.29 ticks)
Parallel b&c, 4 threads:
  Real time             =    0.00 sec. (0.00 ticks)
  Sync time (average)   =    0.00 sec.
  Wait time (average)   =    0.00 sec.
                          ------------
Total (root+branch&cut) =    1.06 sec. (2685.29 ticks)

Solution pool: 2 solutions saved.

MIP - Integer optimal solution:  Objective =  1.7000000000e+01
Solution time =    1.06 sec.  Iterations = 2314  Nodes = 0
Deterministic time = 2685.37 ticks  (2521.52 ticks/sec)


Incumbent solution written to file 'results/InstanceA1_ti_finsteps123_i30_m600.sol'.
